ITEM = 1..55;
capacity1 = 534;
capacity2 = 534;
capacity3 = 534;
profits = [66, 51, 39, 80, 47, 101, 20, 36, 20, 33, 42, 64, 32, 66, 23, 49, 32, 21, 25, 35, 36, 92, 26, 38, 57, 60, 39, 22, 21, 34, 25, 64, 20, 54, 24, 51, 76, 80, 47, 80, 21, 59, 26, 21, 64, 32, 52, 30, 33, 78, 33, 29, 48, 30, 46];
weights = [77, 77, 82, 77, 75, 97, 11, 43, 10, 31, 33, 97, 51, 77, 15, 83, 41, 14, 56, 54, 59, 84, 28, 90, 91, 51, 75, 43, 12, 93, 66, 63, 13, 68, 38, 79, 97, 75, 66, 77, 11, 61, 29, 27, 97, 49, 69, 86, 52, 97, 56, 40, 50, 68, 41];
